* ENCODING=ISO-8859-1
NAME          T1-1-1
ROWS
 N  OBJROW  
 L  R0000000
 L  R0000001
 L  R0000002
 L  R0000003
 L  R0000004
 L  R0000005
COLUMNS
    MARK0000  'MARKER'                 'INTORG'
    C0000000  OBJROW                         -2
    C0000000  R0000004                        5
    C0000000  R0000005                        6
    C0000001  OBJROW                         -9
    C0000001  R0000001                        4
    C0000001  R0000002                        7
    C0000001  R0000005                        6
    C0000002  OBJROW                         -5
    C0000002  R0000004                        3
    C0000002  R0000005                        7
    C0000003  OBJROW                         -6
    C0000003  R0000000                        7
    C0000003  R0000004                        3
    C0000003  R0000005                        5
    C0000004  OBJROW                         -3
    C0000004  R0000001                        5
    C0000005  OBJROW                         -8
    C0000005  R0000002                        7
    C0000005  R0000004                        5
    C0000006  OBJROW                         -9
    C0000006  R0000002                        5
    C0000006  R0000005                        4
    C0000007  OBJROW                         -8
    C0000007  R0000000                        3
    C0000007  R0000001                        5
    C0000007  R0000005                        4
    C0000008  OBJROW                         -2
    C0000008  R0000005                        3
    C0000009  OBJROW                         -2
    C0000009  R0000002                        5
    C0000009  R0000004                        6
    C0000010  OBJROW                         -8
    C0000010  R0000001                        5
    C0000010  R0000002                        7
    C0000010  R0000004                        3
    C0000010  R0000005                        6
    C0000011  OBJROW                         -6
    C0000011  R0000001                        7
    C0000011  R0000002                        5
    C0000011  R0000004                        3
    C0000012  OBJROW                         -4
    C0000012  R0000000                        4
    C0000012  R0000003                        4
    C0000012  R0000004                        6
    C0000013  OBJROW                         -7
    C0000013  R0000000                        6
    C0000013  R0000001                        4
    C0000013  R0000002                        7
    C0000013  R0000004                        3
    C0000014  OBJROW                         -4
    C0000014  R0000000                        7
    C0000014  R0000001                        3
    C0000014  R0000003                        6
    C0000015  OBJROW                        -10
    C0000015  R0000000                        4
    C0000015  R0000001                        6
    C0000015  R0000003                        4
    C0000016  OBJROW                         -5
    C0000016  R0000000                        4
    C0000016  R0000001                        7
    C0000016  R0000002                        5
    C0000016  R0000003                        4
    C0000016  R0000005                        7
    C0000017  OBJROW                         -1
    C0000017  R0000001                        6
    C0000017  R0000002                        7
    C0000018  OBJROW                         -7
    C0000018  R0000000                        3
    C0000018  R0000001                        5
    C0000018  R0000003                        3
    C0000018  R0000004                        4
    C0000019  OBJROW                         -7
    C0000019  R0000003                        7
    C0000019  R0000005                        6
    C0000020  OBJROW                         -5
    C0000020  R0000000                        7
    C0000020  R0000001                        3
    C0000020  R0000002                        4
    C0000020  R0000003                        7
    C0000020  R0000005                        6
    C0000021  OBJROW                         -3
    C0000021  R0000003                        7
    C0000021  R0000004                        3
    C0000021  R0000005                        4
    C0000022  OBJROW                         -1
    C0000022  R0000005                        7
    C0000023  OBJROW                         -3
    C0000023  R0000000                        6
    C0000023  R0000002                        6
    C0000023  R0000004                        3
    C0000024  OBJROW                         -5
    C0000024  R0000000                        5
    C0000024  R0000001                        6
    C0000024  R0000003                        5
    C0000025  OBJROW                         -7
    C0000025  R0000000                        6
    C0000025  R0000001                        3
    C0000025  R0000002                        6
    C0000025  R0000004                        5
    C0000026  OBJROW                         -6
    C0000026  R0000002                        6
    C0000026  R0000003                        4
    C0000027  OBJROW                         -8
    C0000027  R0000001                        4
    C0000027  R0000004                        5
    C0000028  OBJROW                         -4
    C0000028  R0000000                        6
    C0000028  R0000001                        5
    C0000028  R0000002                        6
    C0000028  R0000003                        6
    C0000029  OBJROW                         -6
    C0000029  R0000001                        6
    C0000030  OBJROW                         -9
    C0000030  R0000004                        5
    C0000031  OBJROW                        -10
    C0000031  R0000001                        7
    C0000031  R0000003                        3
    C0000031  R0000005                        5
    C0000032  OBJROW                        -10
    C0000032  R0000000                        3
    C0000032  R0000001                        4
    C0000032  R0000003                        7
    C0000033  OBJROW                         -9
    C0000033  R0000000                        4
    C0000033  R0000005                        4
    C0000034  OBJROW                         -6
    C0000034  R0000000                        7
    C0000034  R0000001                        6
    C0000034  R0000005                        7
    C0000035  OBJROW                         -1
    C0000035  R0000002                        7
    C0000035  R0000003                        6
    C0000035  R0000005                        4
    C0000036  OBJROW                         -1
    C0000036  R0000003                        6
    C0000036  R0000005                        7
    C0000037  OBJROW                         -9
    C0000037  R0000001                        6
    C0000037  R0000003                        6
    C0000038  OBJROW                        -10
    C0000038  R0000001                        4
    C0000038  R0000003                        4
    C0000038  R0000004                        7
    C0000038  R0000005                        3
    C0000039  OBJROW                         -9
    C0000039  R0000001                        6
    C0000039  R0000004                        5
    C0000040  OBJROW                         -8
    C0000040  R0000000                        3
    C0000040  R0000001                        3
    C0000040  R0000002                        7
    C0000040  R0000003                        3
    C0000041  OBJROW                         -9
    C0000041  R0000000                        5
    C0000041  R0000001                        5
    C0000041  R0000002                        5
    C0000042  OBJROW                         -5
    C0000042  R0000000                        6
    C0000042  R0000005                        7
    C0000043  OBJROW                         -6
    C0000043  R0000000                        7
    C0000043  R0000001                        4
    C0000043  R0000004                        7
    C0000044  OBJROW                         -7
    C0000044  R0000000                        3
    C0000045  OBJROW                         -1
    C0000045  R0000000                        3
    C0000045  R0000001                        3
    C0000045  R0000003                        5
    C0000046  OBJROW                        -10
    C0000046  R0000002                        4
    C0000046  R0000003                        6
    C0000046  R0000004                        6
    C0000046  R0000005                        7
    C0000047  OBJROW                        -10
    C0000047  R0000000                        4
    C0000047  R0000001                        5
    C0000047  R0000005                        4
    C0000048  OBJROW                         -8
    C0000048  R0000001                        5
    C0000048  R0000002                        5
    C0000048  R0000003                        4
    C0000048  R0000005                        6
    C0000049  OBJROW                         -2
    C0000049  R0000001                        6
    C0000049  R0000003                        4
    C0000050  OBJROW                         -4
    C0000050  R0000000                        9
    C0000050  R0000002                        5
    C0000050  R0000003                        5
    C0000051  OBJROW                         -2
    C0000051  R0000000                        6
    C0000051  R0000001                        5
    C0000052  OBJROW                         -4
    C0000052  R0000001                        9
    C0000052  R0000003                        7
    C0000052  R0000005                        6
    C0000053  OBJROW                         -9
    C0000053  R0000004                        9
    C0000053  R0000005                        7
    C0000054  OBJROW                        -10
    C0000054  R0000000                        6
    C0000054  R0000001                        5
    C0000054  R0000002                        9
    C0000054  R0000005                        6
    C0000055  OBJROW                         -2
    C0000055  R0000001                        6
    C0000055  R0000003                        6
    C0000056  OBJROW                         -1
    C0000056  R0000001                        6
    C0000057  OBJROW                         -8
    C0000057  R0000000                        8
    C0000057  R0000001                        6
    C0000057  R0000004                        7
    C0000058  OBJROW                         -3
    C0000058  R0000003                        8
    C0000058  R0000004                        8
    C0000058  R0000005                        6
    C0000059  OBJROW                         -4
    C0000059  R0000000                        7
    C0000059  R0000002                        7
    C0000059  R0000003                        9
    C0000060  OBJROW                         -8
    C0000060  R0000004                        8
    C0000060  R0000005                        8
    C0000061  OBJROW                         -6
    C0000061  R0000000                        7
    C0000061  R0000001                        6
    C0000061  R0000002                        5
    C0000061  R0000004                        9
    C0000062  OBJROW                         -6
    C0000062  R0000001                        5
    C0000062  R0000002                        9
    C0000062  R0000005                        9
    C0000063  OBJROW                         -4
    C0000063  R0000005                        9
    C0000064  OBJROW                         -6
    C0000064  R0000004                        5
    C0000065  OBJROW                         -8
    C0000065  R0000001                        5
    C0000065  R0000002                        5
    C0000065  R0000003                        8
    C0000065  R0000004                        5
    C0000066  OBJROW                         -5
    C0000066  R0000000                        5
    C0000066  R0000003                        6
    C0000066  R0000005                        8
    C0000067  OBJROW                         -1
    C0000067  R0000002                        5
    C0000067  R0000004                        6
    C0000067  R0000005                        8
    C0000068  OBJROW                         -3
    C0000068  R0000000                        6
    C0000068  R0000005                        6
    C0000069  OBJROW                         -2
    C0000069  R0000004                        6
    C0000069  R0000005                        9
    C0000070  OBJROW                         -3
    C0000070  R0000003                        9
    C0000070  R0000005                        9
    C0000071  OBJROW                         -9
    C0000071  R0000000                        8
    C0000071  R0000005                        8
    C0000072  OBJROW                         -8
    C0000072  R0000000                        7
    C0000072  R0000001                        5
    C0000072  R0000003                        6
    C0000073  OBJROW                         -2
    C0000073  R0000000                        8
    C0000073  R0000002                        5
    C0000073  R0000003                        8
    C0000073  R0000005                        8
    C0000074  OBJROW                         -1
    C0000074  R0000002                        6
    C0000075  OBJROW                        -10
    C0000075  R0000000                        5
    C0000075  R0000002                        6
    C0000075  R0000003                        6
    C0000075  R0000004                        8
    C0000075  R0000005                        9
    C0000076  OBJROW                         -3
    C0000076  R0000001                        7
    C0000076  R0000003                        5
    C0000076  R0000005                        5
    C0000077  OBJROW                         -7
    C0000077  R0000000                        9
    C0000077  R0000001                        9
    C0000077  R0000004                        7
    C0000077  R0000005                        9
    C0000078  OBJROW                         -6
    C0000078  R0000004                        7
    C0000079  OBJROW                         -6
    C0000079  R0000000                        8
    C0000079  R0000003                        8
    C0000079  R0000004                        6
    C0000080  OBJROW                         -7
    C0000080  R0000001                        9
    C0000080  R0000003                        5
    C0000081  OBJROW                         -8
    C0000081  R0000000                        5
    C0000081  R0000001                        7
    C0000081  R0000002                        8
    C0000081  R0000003                        9
    C0000082  OBJROW                         -8
    C0000082  R0000001                        8
    C0000082  R0000003                        6
    C0000083  OBJROW                         -8
    C0000083  R0000000                        6
    C0000083  R0000002                        5
    C0000083  R0000005                        5
    C0000084  OBJROW                         -3
    C0000084  R0000004                        9
    C0000085  OBJROW                         -9
    C0000085  R0000003                        9
    C0000086  OBJROW                         -2
    C0000086  R0000001                        5
    C0000086  R0000002                        7
    C0000086  R0000005                        7
    C0000087  OBJROW                         -8
    C0000087  R0000003                        5
    C0000087  R0000005                        8
    C0000088  OBJROW                         -3
    C0000088  R0000002                        6
    C0000088  R0000004                        8
    C0000089  OBJROW                         -3
    C0000089  R0000000                        6
    C0000089  R0000004                        5
    C0000090  OBJROW                         -1
    C0000090  R0000002                        8
    C0000090  R0000004                        8
    C0000091  OBJROW                         -4
    C0000091  R0000000                        8
    C0000092  OBJROW                        -10
    C0000092  R0000001                        5
    C0000092  R0000004                        5
    C0000092  R0000005                        7
    C0000093  OBJROW                         -2
    C0000093  R0000001                        8
    C0000093  R0000002                        8
    C0000093  R0000003                        6
    C0000094  OBJROW                         -8
    C0000094  R0000000                        5
    C0000094  R0000001                        6
    C0000094  R0000004                        6
    C0000095  OBJROW                         -9
    C0000095  R0000003                        9
    C0000095  R0000005                        5
    C0000096  OBJROW                         -1
    C0000096  R0000000                        6
    C0000096  R0000001                        8
    C0000097  OBJROW                         -9
    C0000097  R0000004                        6
    C0000098  OBJROW                         -9
    C0000098  R0000001                        7
    C0000098  R0000002                        5
    C0000098  R0000004                        6
    C0000099  OBJROW                         -4
    C0000099  R0000003                        6
    C0000099  R0000005                        5
    C0000100  OBJROW                         -3
    C0000100  R0000001                        5
    C0000100  R0000003                        5
    C0000100  R0000005                        9
    C0000101  OBJROW                         -1
    C0000101  R0000000                        8
    C0000101  R0000001                        9
    C0000101  R0000002                        5
    C0000101  R0000003                        5
    C0000101  R0000004                        7
    C0000101  R0000005                        5
    C0000102  OBJROW                         -2
    C0000102  R0000001                        6
    C0000102  R0000003                        9
    C0000103  OBJROW                         -7
    C0000103  R0000001                        9
    C0000103  R0000002                        6
    C0000104  OBJROW                         -1
    C0000104  R0000001                        8
    C0000104  R0000004                        6
    C0000105  OBJROW                         -2
    C0000105  R0000000                        5
    C0000105  R0000005                        7
    C0000106  OBJROW                         -2
    C0000106  R0000001                        7
    C0000106  R0000002                        9
    C0000106  R0000004                        6
    C0000107  OBJROW                         -9
    C0000107  R0000000                        9
    C0000107  R0000001                        8
    C0000107  R0000002                        8
    C0000107  R0000004                        6
    C0000107  R0000005                        8
    C0000108  OBJROW                         -7
    C0000108  R0000000                        5
    C0000108  R0000002                        8
    C0000108  R0000004                        8
    C0000108  R0000005                        9
    C0000109  OBJROW                         -3
    C0000109  R0000000                        5
    C0000109  R0000001                        5
    C0000109  R0000002                        8
    C0000109  R0000003                        9
    C0000109  R0000005                        6
    C0000110  OBJROW                         -3
    C0000110  R0000000                        8
    C0000110  R0000001                        6
    C0000111  OBJROW                         -1
    C0000111  R0000000                        8
    C0000111  R0000005                        5
    C0000112  OBJROW                         -2
    C0000112  R0000000                        9
    C0000112  R0000003                        9
    C0000112  R0000005                        7
    C0000113  OBJROW                         -7
    C0000113  R0000000                        7
    C0000113  R0000001                        8
    C0000113  R0000005                        6
    C0000114  OBJROW                         -8
    C0000114  R0000001                        7
    C0000115  OBJROW                         -7
    C0000115  R0000000                        6
    C0000115  R0000005                        5
    C0000116  OBJROW                         -4
    C0000116  R0000000                        8
    C0000116  R0000002                        6
    C0000116  R0000003                        6
    C0000116  R0000004                        5
    C0000117  OBJROW                         -4
    C0000117  R0000001                        8
    C0000117  R0000004                        7
    C0000118  OBJROW                         -5
    C0000118  R0000005                        7
    C0000119  OBJROW                         -5
    C0000119  R0000003                        6
    MARK0001  'MARKER'                 'INTEND'
RHS
    rhs       R0000000                       25
    rhs       R0000001                       24
    rhs       R0000002                       22
    rhs       R0000003                       21
    rhs       R0000004                       22
    rhs       R0000005                       24
BOUNDS
 BV bnd       C0000000
 BV bnd       C0000001
 BV bnd       C0000002
 BV bnd       C0000003
 BV bnd       C0000004
 BV bnd       C0000005
 BV bnd       C0000006
 BV bnd       C0000007
 BV bnd       C0000008
 BV bnd       C0000009
 BV bnd       C0000010
 BV bnd       C0000011
 BV bnd       C0000012
 BV bnd       C0000013
 BV bnd       C0000014
 BV bnd       C0000015
 BV bnd       C0000016
 BV bnd       C0000017
 BV bnd       C0000018
 BV bnd       C0000019
 BV bnd       C0000020
 BV bnd       C0000021
 BV bnd       C0000022
 BV bnd       C0000023
 BV bnd       C0000024
 BV bnd       C0000025
 BV bnd       C0000026
 BV bnd       C0000027
 BV bnd       C0000028
 BV bnd       C0000029
 BV bnd       C0000030
 BV bnd       C0000031
 BV bnd       C0000032
 BV bnd       C0000033
 BV bnd       C0000034
 BV bnd       C0000035
 BV bnd       C0000036
 BV bnd       C0000037
 BV bnd       C0000038
 BV bnd       C0000039
 BV bnd       C0000040
 BV bnd       C0000041
 BV bnd       C0000042
 BV bnd       C0000043
 BV bnd       C0000044
 BV bnd       C0000045
 BV bnd       C0000046
 BV bnd       C0000047
 BV bnd       C0000048
 BV bnd       C0000049
 LI bnd       C0000050  0
 LI bnd       C0000051  0
 LI bnd       C0000052  0
 LI bnd       C0000053  0
 LI bnd       C0000054  0
 LI bnd       C0000055  0
 LI bnd       C0000056  0
 LI bnd       C0000057  0
 LI bnd       C0000058  0
 LI bnd       C0000059  0
 LI bnd       C0000060  0
 LI bnd       C0000061  0
 LI bnd       C0000062  0
 LI bnd       C0000063  0
 LI bnd       C0000064  0
 LI bnd       C0000065  0
 LI bnd       C0000066  0
 LI bnd       C0000067  0
 LI bnd       C0000068  0
 LI bnd       C0000069  0
 LI bnd       C0000070  0
 LI bnd       C0000071  0
 LI bnd       C0000072  0
 LI bnd       C0000073  0
 LI bnd       C0000074  0
 LI bnd       C0000075  0
 LI bnd       C0000076  0
 LI bnd       C0000077  0
 LI bnd       C0000078  0
 LI bnd       C0000079  0
 LI bnd       C0000080  0
 LI bnd       C0000081  0
 LI bnd       C0000082  0
 LI bnd       C0000083  0
 LI bnd       C0000084  0
 LI bnd       C0000085  0
 LI bnd       C0000086  0
 LI bnd       C0000087  0
 LI bnd       C0000088  0
 LI bnd       C0000089  0
 LI bnd       C0000090  0
 LI bnd       C0000091  0
 LI bnd       C0000092  0
 LI bnd       C0000093  0
 LI bnd       C0000094  0
 LI bnd       C0000095  0
 LI bnd       C0000096  0
 LI bnd       C0000097  0
 LI bnd       C0000098  0
 LI bnd       C0000099  0
 LI bnd       C0000100  0
 LI bnd       C0000101  0
 LI bnd       C0000102  0
 LI bnd       C0000103  0
 LI bnd       C0000104  0
 LI bnd       C0000105  0
 LI bnd       C0000106  0
 LI bnd       C0000107  0
 LI bnd       C0000108  0
 LI bnd       C0000109  0
 LI bnd       C0000110  0
 LI bnd       C0000111  0
 LI bnd       C0000112  0
 LI bnd       C0000113  0
 LI bnd       C0000114  0
 LI bnd       C0000115  0
 LI bnd       C0000116  0
 LI bnd       C0000117  0
 LI bnd       C0000118  0
 LI bnd       C0000119  0
ENDATA
